n_res = 5;
rcap = [16, 20, 19, 97, 85];
rtype = [1, 1, 1, 2, 2];
n_tasks = 16;
modes = [ {1, 2, 3}, {4, 5, 6}, {7, 8, 9}, {10, 11, 12}, {13, 14, 15}, {16, 17, 18}, {19, 20, 21}, {22, 23, 24}, {25, 26, 27}, {28, 29, 30}, {31, 32, 33}, {34, 35, 36}, {37, 38, 39}, {40, 41, 42}, {43, 44, 45}, {46, 47, 48} ];
succ = [ {4, 7, 10}, {8, 13}, {5, 8, 12}, {5, 6}, {9, 16}, {8, 11, 12}, {14, 15}, {9, 15, 16}, {14}, {12}, {13, 14}, {13, 15}, {16}, {}, {}, {} ];
n_opt = 48;
dur = [2, 8, 9, 2, 5, 7, 2, 2, 6, 1, 2, 4, 2, 8, 9, 1, 4, 5, 2, 6, 9, 1, 4, 5, 5, 6, 9, 3, 4, 9, 2, 3, 6, 1, 1, 7, 1, 3, 6, 1, 3, 10, 2, 3, 8, 2, 8, 8];
rreq = [|  4,  3,  1,  5,  2,  1,  9,  8,  7,  5,  5,  5,  3,  2,  2,  6,  6,  4,  9,  7,  6,  7,  6,  4,  6,  6,  5,  5,  3,  2,  9,  9,  7,  4,  5,  4,  4,  2,  1,  5,  2,  1,  6,  4,  3,  2,  2,  2
        | 10,  8,  6,  7,  7,  7, 10,  9,  6, 10,  8,  7,  5,  5,  4,  8,  7,  7,  8,  6,  4,  5,  5,  5,  9,  8,  6,  9,  7,  5,  8,  8,  8,  5,  5,  3, 10,  9,  9,  6,  5,  5,  8,  8,  8,  9,  7,  8
        |  8,  8,  7,  8,  7,  3,  6,  6,  5,  9,  7,  4,  7,  5,  3,  6,  4,  4,  4,  3,  2,  6,  5,  5,  3,  2,  2,  7,  6,  6, 10,  8,  7,  5,  5,  4,  4,  4,  3,  8,  6,  5,  7,  4,  1,  7,  7,  7
        |  0,  6,  6,  8,  7,  6,  2,  0,  0,  5,  3,  0, 10,  0,  0,  0,  0,  0,  0,  0,  6,  7,  0,  0,  5,  0,  0,  4,  2,  0,  0,  9,  8,  0,  8,  7,  0,  0,  0,  0,  0, 10,  9,  0,  0,  8,  8,  0
        |  5,  0,  0,  0,  0,  0,  0,  5,  2,  0,  0,  2,  0,  6,  4,  8,  5,  4,  8,  6,  0,  0,  8,  2,  0,  5,  5,  0,  0,  4,  4,  0,  0,  7,  0,  0,  9,  7,  5,  7,  6,  0,  0,  3,  3,  0,  0,  4 |];
